/*********************************************
 * OPL 12.6.0.0 Data
 * Author: Adrian Rodriguez Bazaga, Pau Rodriguez Esmerats
 * Creation Date: 06/12/2017 at 23:05:00
 *********************************************/

nNurses=260;
maxConsec=2;
maxPresence=7;
maxHours=5;
minHours=1;
hours=24;
demand= [48 44 63 67 44 63 67 46 42 24 3 11 7 12 8 10 5 7 5 1 36 78 43 59  ];
